BAYES
676
2 2 2 2 2 2 2 2 2 2 2 2 2 2 2 2 2 2 2 2 2 2 2 2 2 2 2 2 2 2 2 2 2 2 2 2 2 2 2 2 2 2 2 2 2 2 2 2 2 2 2 2 2 2 2 2 2 2 2 2 2 2 2 2 2 2 2 2 2 2 2 2 2 2 2 2 2 2 2 2 2 2 2 2 2 2 2 2 2 2 2 2 2 2 2 2 2 2 2 2 2 2 2 2 2 2 2 2 2 2 2 2 2 2 2 2 2 2 2 2 2 2 2 2 2 2 2 2 2 2 2 2 2 2 2 2 2 2 2 2 2 2 2 2 2 2 2 2 2 2 2 2 2 2 2 2 2 2 2 2 2 2 2 2 2 2 2 2 2 2 2 2 2 2 2 2 2 2 2 2 2 2 2 2 2 2 2 2 2 2 2 2 2 2 2 2 2 2 2 2 2 2 2 2 2 2 2 2 2 2 2 2 2 2 2 2 2 2 2 2 2 2 2 2 2 2 2 2 2 2 2 2 2 2 2 2 2 2 2 2 2 2 2 2 2 2 2 2 2 2 2 2 2 2 2 2 2 2 2 2 2 2 2 2 2 2 2 2 2 2 2 2 2 2 2 2 2 2 2 2 2 2 2 2 2 2 2 2 2 2 2 2 2 2 2 2 2 2 2 2 2 2 2 2 2 2 2 2 2 2 2 2 2 2 2 2 2 2 2 2 2 2 2 2 2 2 2 2 2 2 2 2 2 2 2 2 2 2 2 2 2 2 2 2 2 2 2 2 2 2 2 2 2 2 2 2 2 2 2 2 2 2 2 2 2 2 2 2 2 2 2 2 2 2 2 2 2 2 2 2 2 2 2 2 2 2 2 2 2 2 2 2 2 2 2 2 2 2 2 2 2 2 2 2 2 2 2 2 2 2 2 2 2 2 2 2 2 2 2 2 2 2 2 2 2 2 2 2 2 2 2 2 2 2 2 2 2 2 2 2 2 2 2 2 2 2 2 2 2 2 2 2 2 2 2 2 2 2 2 2 2 2 2 2 2 2 2 2 2 2 2 2 2 2 2 2 2 2 2 2 2 2 2 2 2 2 2 2 2 2 2 2 2 2 2 2 2 2 2 2 2 2 2 2 2 2 2 2 2 2 2 2 2 2 2 2 2 2 2 2 2 2 2 2 2 2 2 2 2 2 2 2 2 2 2 2 2 2 2 2 2 2 2 2 2 2 2 2 2 2 2 2 2 2 2 2 2 2 2 2 2 2 2 2 2 2 2 2 2 2 2 2 2 2 2 2 2 2 2 2 2 2 2 2 2 2 2 2 2 2 2 2 2 2 2 2 2 2 2 2 2 2 2 2 2 2 2 2 2 2 2 2 2 2 2 2 2 2 2 2 2 2 2 2 2 2 2 2 2 2 2 2 2 2 2 2 2 2 2 2 2 2 2 2 2 2 2 2 2 2 2 2 2 2 2 2 2 2 2 2 2 2 2 2 2 2 2 2 2 2 2 2 2 2 2 2
676
1 0
2 0 1
2 1 2
2 2 3
2 3 4
2 4 5
2 5 6
2 6 7
2 7 8
2 8 9
2 9 10
2 10 11
2 11 12
2 12 13
2 13 14
2 14 15
2 15 16
2 16 17
2 17 18
2 18 19
2 19 20
2 20 21
2 21 22
2 22 23
2 23 24
2 24 25
2 0 26
3 1 26 27
3 2 27 28
3 3 28 29
3 4 29 30
3 5 30 31
3 6 31 32
3 7 32 33
3 8 33 34
3 9 34 35
3 10 35 36
3 11 36 37
3 12 37 38
3 13 38 39
3 14 39 40
3 15 40 41
3 16 41 42
3 17 42 43
3 18 43 44
3 19 44 45
3 20 45 46
3 21 46 47
3 22 47 48
3 23 48 49
3 24 49 50
3 25 50 51
2 26 52
3 27 52 53
3 28 53 54
3 29 54 55
3 30 55 56
3 31 56 57
3 32 57 58
3 33 58 59
3 34 59 60
3 35 60 61
3 36 61 62
3 37 62 63
3 38 63 64
3 39 64 65
3 40 65 66
3 41 66 67
3 42 67 68
3 43 68 69
3 44 69 70
3 45 70 71
3 46 71 72
3 47 72 73
3 48 73 74
3 49 74 75
3 50 75 76
3 51 76 77
2 52 78
3 53 78 79
3 54 79 80
3 55 80 81
3 56 81 82
3 57 82 83
3 58 83 84
3 59 84 85
3 60 85 86
3 61 86 87
3 62 87 88
3 63 88 89
3 64 89 90
3 65 90 91
3 66 91 92
3 67 92 93
3 68 93 94
3 69 94 95
3 70 95 96
3 71 96 97
3 72 97 98
3 73 98 99
3 74 99 100
3 75 100 101
3 76 101 102
3 77 102 103
2 78 104
3 79 104 105
3 80 105 106
3 81 106 107
3 82 107 108
3 83 108 109
3 84 109 110
3 85 110 111
3 86 111 112
3 87 112 113
3 88 113 114
3 89 114 115
3 90 115 116
3 91 116 117
3 92 117 118
3 93 118 119
3 94 119 120
3 95 120 121
3 96 121 122
3 97 122 123
3 98 123 124
3 99 124 125
3 100 125 126
3 101 126 127
3 102 127 128
3 103 128 129
2 104 130
3 105 130 131
3 106 131 132
3 107 132 133
3 108 133 134
3 109 134 135
3 110 135 136
3 111 136 137
3 112 137 138
3 113 138 139
3 114 139 140
3 115 140 141
3 116 141 142
3 117 142 143
3 118 143 144
3 119 144 145
3 120 145 146
3 121 146 147
3 122 147 148
3 123 148 149
3 124 149 150
3 125 150 151
3 126 151 152
3 127 152 153
3 128 153 154
3 129 154 155
2 130 156
3 131 156 157
3 132 157 158
3 133 158 159
3 134 159 160
3 135 160 161
3 136 161 162
3 137 162 163
3 138 163 164
3 139 164 165
3 140 165 166
3 141 166 167
3 142 167 168
3 143 168 169
3 144 169 170
3 145 170 171
3 146 171 172
3 147 172 173
3 148 173 174
3 149 174 175
3 150 175 176
3 151 176 177
3 152 177 178
3 153 178 179
3 154 179 180
3 155 180 181
2 156 182
3 157 182 183
3 158 183 184
3 159 184 185
3 160 185 186
3 161 186 187
3 162 187 188
3 163 188 189
3 164 189 190
3 165 190 191
3 166 191 192
3 167 192 193
3 168 193 194
3 169 194 195
3 170 195 196
3 171 196 197
3 172 197 198
3 173 198 199
3 174 199 200
3 175 200 201
3 176 201 202
3 177 202 203
3 178 203 204
3 179 204 205
3 180 205 206
3 181 206 207
2 182 208
3 183 208 209
3 184 209 210
3 185 210 211
3 186 211 212
3 187 212 213
3 188 213 214
3 189 214 215
3 190 215 216
3 191 216 217
3 192 217 218
3 193 218 219
3 194 219 220
3 195 220 221
3 196 221 222
3 197 222 223
3 198 223 224
3 199 224 225
3 200 225 226
3 201 226 227
3 202 227 228
3 203 228 229
3 204 229 230
3 205 230 231
3 206 231 232
3 207 232 233
2 208 234
3 209 234 235
3 210 235 236
3 211 236 237
3 212 237 238
3 213 238 239
3 214 239 240
3 215 240 241
3 216 241 242
3 217 242 243
3 218 243 244
3 219 244 245
3 220 245 246
3 221 246 247
3 222 247 248
3 223 248 249
3 224 249 250
3 225 250 251
3 226 251 252
3 227 252 253
3 228 253 254
3 229 254 255
3 230 255 256
3 231 256 257
3 232 257 258
3 233 258 259
2 234 260
3 235 260 261
3 236 261 262
3 237 262 263
3 238 263 264
3 239 264 265
3 240 265 266
3 241 266 267
3 242 267 268
3 243 268 269
3 244 269 270
3 245 270 271
3 246 271 272
3 247 272 273
3 248 273 274
3 249 274 275
3 250 275 276
3 251 276 277
3 252 277 278
3 253 278 279
3 254 279 280
3 255 280 281
3 256 281 282
3 257 282 283
3 258 283 284
3 259 284 285
2 260 286
3 261 286 287
3 262 287 288
3 263 288 289
3 264 289 290
3 265 290 291
3 266 291 292
3 267 292 293
3 268 293 294
3 269 294 295
3 270 295 296
3 271 296 297
3 272 297 298
3 273 298 299
3 274 299 300
3 275 300 301
3 276 301 302
3 277 302 303
3 278 303 304
3 279 304 305
3 280 305 306
3 281 306 307
3 282 307 308
3 283 308 309
3 284 309 310
3 285 310 311
2 286 312
3 287 312 313
3 288 313 314
3 289 314 315
3 290 315 316
3 291 316 317
3 292 317 318
3 293 318 319
3 294 319 320
3 295 320 321
3 296 321 322
3 297 322 323
3 298 323 324
3 299 324 325
3 300 325 326
3 301 326 327
3 302 327 328
3 303 328 329
3 304 329 330
3 305 330 331
3 306 331 332
3 307 332 333
3 308 333 334
3 309 334 335
3 310 335 336
3 311 336 337
2 312 338
3 313 338 339
3 314 339 340
3 315 340 341
3 316 341 342
3 317 342 343
3 318 343 344
3 319 344 345
3 320 345 346
3 321 346 347
3 322 347 348
3 323 348 349
3 324 349 350
3 325 350 351
3 326 351 352
3 327 352 353
3 328 353 354
3 329 354 355
3 330 355 356
3 331 356 357
3 332 357 358
3 333 358 359
3 334 359 360
3 335 360 361
3 336 361 362
3 337 362 363
2 338 364
3 339 364 365
3 340 365 366
3 341 366 367
3 342 367 368
3 343 368 369
3 344 369 370
3 345 370 371
3 346 371 372
3 347 372 373
3 348 373 374
3 349 374 375
3 350 375 376
3 351 376 377
3 352 377 378
3 353 378 379
3 354 379 380
3 355 380 381
3 356 381 382
3 357 382 383
3 358 383 384
3 359 384 385
3 360 385 386
3 361 386 387
3 362 387 388
3 363 388 389
2 364 390
3 365 390 391
3 366 391 392
3 367 392 393
3 368 393 394
3 369 394 395
3 370 395 396
3 371 396 397
3 372 397 398
3 373 398 399
3 374 399 400
3 375 400 401
3 376 401 402
3 377 402 403
3 378 403 404
3 379 404 405
3 380 405 406
3 381 406 407
3 382 407 408
3 383 408 409
3 384 409 410
3 385 410 411
3 386 411 412
3 387 412 413
3 388 413 414
3 389 414 415
2 390 416
3 391 416 417
3 392 417 418
3 393 418 419
3 394 419 420
3 395 420 421
3 396 421 422
3 397 422 423
3 398 423 424
3 399 424 425
3 400 425 426
3 401 426 427
3 402 427 428
3 403 428 429
3 404 429 430
3 405 430 431
3 406 431 432
3 407 432 433
3 408 433 434
3 409 434 435
3 410 435 436
3 411 436 437
3 412 437 438
3 413 438 439
3 414 439 440
3 415 440 441
2 416 442
3 417 442 443
3 418 443 444
3 419 444 445
3 420 445 446
3 421 446 447
3 422 447 448
3 423 448 449
3 424 449 450
3 425 450 451
3 426 451 452
3 427 452 453
3 428 453 454
3 429 454 455
3 430 455 456
3 431 456 457
3 432 457 458
3 433 458 459
3 434 459 460
3 435 460 461
3 436 461 462
3 437 462 463
3 438 463 464
3 439 464 465
3 440 465 466
3 441 466 467
2 442 468
3 443 468 469
3 444 469 470
3 445 470 471
3 446 471 472
3 447 472 473
3 448 473 474
3 449 474 475
3 450 475 476
3 451 476 477
3 452 477 478
3 453 478 479
3 454 479 480
3 455 480 481
3 456 481 482
3 457 482 483
3 458 483 484
3 459 484 485
3 460 485 486
3 461 486 487
3 462 487 488
3 463 488 489
3 464 489 490
3 465 490 491
3 466 491 492
3 467 492 493
2 468 494
3 469 494 495
3 470 495 496
3 471 496 497
3 472 497 498
3 473 498 499
3 474 499 500
3 475 500 501
3 476 501 502
3 477 502 503
3 478 503 504
3 479 504 505
3 480 505 506
3 481 506 507
3 482 507 508
3 483 508 509
3 484 509 510
3 485 510 511
3 486 511 512
3 487 512 513
3 488 513 514
3 489 514 515
3 490 515 516
3 491 516 517
3 492 517 518
3 493 518 519
2 494 520
3 495 520 521
3 496 521 522
3 497 522 523
3 498 523 524
3 499 524 525
3 500 525 526
3 501 526 527
3 502 527 528
3 503 528 529
3 504 529 530
3 505 530 531
3 506 531 532
3 507 532 533
3 508 533 534
3 509 534 535
3 510 535 536
3 511 536 537
3 512 537 538
3 513 538 539
3 514 539 540
3 515 540 541
3 516 541 542
3 517 542 543
3 518 543 544
3 519 544 545
2 520 546
3 521 546 547
3 522 547 548
3 523 548 549
3 524 549 550
3 525 550 551
3 526 551 552
3 527 552 553
3 528 553 554
3 529 554 555
3 530 555 556
3 531 556 557
3 532 557 558
3 533 558 559
3 534 559 560
3 535 560 561
3 536 561 562
3 537 562 563
3 538 563 564
3 539 564 565
3 540 565 566
3 541 566 567
3 542 567 568
3 543 568 569
3 544 569 570
3 545 570 571
2 546 572
3 547 572 573
3 548 573 574
3 549 574 575
3 550 575 576
3 551 576 577
3 552 577 578
3 553 578 579
3 554 579 580
3 555 580 581
3 556 581 582
3 557 582 583
3 558 583 584
3 559 584 585
3 560 585 586
3 561 586 587
3 562 587 588
3 563 588 589
3 564 589 590
3 565 590 591
3 566 591 592
3 567 592 593
3 568 593 594
3 569 594 595
3 570 595 596
3 571 596 597
2 572 598
3 573 598 599
3 574 599 600
3 575 600 601
3 576 601 602
3 577 602 603
3 578 603 604
3 579 604 605
3 580 605 606
3 581 606 607
3 582 607 608
3 583 608 609
3 584 609 610
3 585 610 611
3 586 611 612
3 587 612 613
3 588 613 614
3 589 614 615
3 590 615 616
3 591 616 617
3 592 617 618
3 593 618 619
3 594 619 620
3 595 620 621
3 596 621 622
3 597 622 623
2 598 624
3 599 624 625
3 600 625 626
3 601 626 627
3 602 627 628
3 603 628 629
3 604 629 630
3 605 630 631
3 606 631 632
3 607 632 633
3 608 633 634
3 609 634 635
3 610 635 636
3 611 636 637
3 612 637 638
3 613 638 639
3 614 639 640
3 615 640 641
3 616 641 642
3 617 642 643
3 618 643 644
3 619 644 645
3 620 645 646
3 621 646 647
3 622 647 648
3 623 648 649
2 624 650
3 625 650 651
3 626 651 652
3 627 652 653
3 628 653 654
3 629 654 655
3 630 655 656
3 631 656 657
3 632 657 658
3 633 658 659
3 634 659 660
3 635 660 661
3 636 661 662
3 637 662 663
3 638 663 664
3 639 664 665
3 640 665 666
3 641 666 667
3 642 667 668
3 643 668 669
3 644 669 670
3 645 670 671
3 646 671 672
3 647 672 673
3 648 673 674
3 649 674 675

2
0.497489 0.502511
4
0.211857 0.788143 0.355003 0.644997
4
0.0 1.0 1.0 0.0
4
1.0 0.0 0.0 1.0
4
1.0 0.0 0.0 1.0
4
0.316091 0.683909 0.332252 0.667748
4
0.329046 0.670954 0.429116 0.570884
4
0.0 1.0 1.0 0.0
4
1.0 0.0 0.0 1.0
4
0.941849 0.0581505 0.732033 0.267967
4
0.442301 0.557699 0.840909 0.159091
4
1.0 0.0 0.0 1.0
4
1.0 0.0 0.0 1.0
4
1.0 0.0 0.0 1.0
4
1.0 0.0 0.0 1.0
4
0.0 1.0 1.0 0.0
4
0.0 1.0 1.0 0.0
4
1.0 0.0 0.0 1.0
4
0.0 1.0 1.0 0.0
4
0.414667 0.585333 0.313557 0.686443
4
1.0 0.0 0.0 1.0
4
0.0 1.0 1.0 0.0
4
0.0 1.0 1.0 0.0
4
1.0 0.0 0.0 1.0
4
0.0 1.0 1.0 0.0
4
0.0 1.0 1.0 0.0
4
0.0 1.0 1.0 0.0
8
1.0 0.0 0.0 1.0 1.0 0.0 1.0 0.0
8
0.210388 0.789612 0.517435 0.482565 0.272389 0.727611 0.256138 0.743862
8
1.0 0.0 0.0 1.0 0.0 1.0 0.0 1.0
8
0.751322 0.248678 0.870755 0.129245 0.597004 0.402996 0.241134 0.758866
8
1.0 0.0 0.0 1.0 1.0 0.0 0.0 1.0
8
1.0 0.0 0.0 1.0 0.0 1.0 1.0 0.0
8
0.822645 0.177355 0.27339 0.72661 0.258811 0.741189 0.594516 0.405484
8
1.0 0.0 0.0 1.0 1.0 0.0 1.0 0.0
8
1.0 0.0 0.0 1.0 0.0 1.0 1.0 0.0
8
0.152816 0.847184 0.812332 0.187668 0.80657 0.19343 0.74982 0.25018
8
0.0 1.0 0.0 1.0 0.0 1.0 1.0 0.0
8
1.0 0.0 0.0 1.0 0.0 1.0 1.0 0.0
8
1.0 0.0 0.0 1.0 1.0 0.0 1.0 0.0
8
0.0 1.0 1.0 0.0 1.0 0.0 0.0 1.0
8
0.0 1.0 1.0 0.0 1.0 0.0 0.0 1.0
8
1.0 0.0 0.0 1.0 0.0 1.0 0.0 1.0
8
0.0 1.0 0.0 1.0 1.0 0.0 1.0 0.0
8
0.0 1.0 0.0 1.0 1.0 0.0 0.0 1.0
8
0.0 1.0 1.0 0.0 0.0 1.0 1.0 0.0
8
0.284456 0.715544 0.0841761 0.915824 0.588686 0.411314 0.49675 0.50325
8
0.652721 0.347279 0.770086 0.229914 0.39537 0.60463 0.972664 0.027336
8
0.0 1.0 1.0 0.0 1.0 0.0 1.0 0.0
8
1.0 0.0 1.0 0.0 0.0 1.0 0.0 1.0
8
0.927829 0.0721711 0.916242 0.0837576 0.950167 0.0498327 0.346314 0.653686
8
0.0 1.0 1.0 0.0 0.0 1.0 0.0 1.0
4
1.0 0.0 0.0 1.0
8
1.0 0.0 1.0 0.0 0.0 1.0 1.0 0.0
8
0.0 1.0 1.0 0.0 0.0 1.0 1.0 0.0
8
0.0 1.0 0.0 1.0 0.0 1.0 1.0 0.0
8
0.204999 0.795001 0.833847 0.166153 0.697327 0.302673 0.132828 0.867172
8
0.647494 0.352506 0.479142 0.520858 0.965979 0.0340213 0.661853 0.338147
8
1.0 0.0 0.0 1.0 1.0 0.0 1.0 0.0
8
0.0 1.0 0.0 1.0 0.0 1.0 1.0 0.0
8
0.0 1.0 1.0 0.0 0.0 1.0 0.0 1.0
8
0.570153 0.429847 0.884743 0.115257 0.116688 0.883312 0.983392 0.0166079
8
0.93781 0.0621902 0.188391 0.811609 0.717421 0.282579 0.635137 0.364863
8
1.0 0.0 0.0 1.0 0.0 1.0 0.0 1.0
8
0.0812346 0.918765 0.117005 0.882995 0.497763 0.502237 0.929585 0.0704148
8
0.0 1.0 1.0 0.0 1.0 0.0 1.0 0.0
8
1.0 0.0 0.0 1.0 1.0 0.0 0.0 1.0
8
0.0 1.0 0.0 1.0 1.0 0.0 0.0 1.0
8
0.572626 0.427374 0.855907 0.144093 0.689201 0.310799 0.207763 0.792237
8
0.0 1.0 1.0 0.0 1.0 0.0 0.0 1.0
8
0.0 1.0 1.0 0.0 0.0 1.0 1.0 0.0
8
1.0 0.0 1.0 0.0 1.0 0.0 0.0 1.0
8
0.966741 0.0332588 0.261494 0.738506 0.491663 0.508337 0.0807124 0.919288
8
0.0 1.0 0.0 1.0 0.0 1.0 1.0 0.0
8
0.0 1.0 0.0 1.0 1.0 0.0 1.0 0.0
8
0.0 1.0 1.0 0.0 0.0 1.0 0.0 1.0
8
0.350268 0.649732 0.501591 0.498409 0.66826 0.33174 0.282909 0.717091
8
1.0 0.0 0.0 1.0 0.0 1.0 0.0 1.0
4
0.0 1.0 1.0 0.0
8
0.0 1.0 1.0 0.0 0.0 1.0 0.0 1.0
8
0.0 1.0 1.0 0.0 0.0 1.0 1.0 0.0
8
0.0 1.0 0.0 1.0 1.0 0.0 1.0 0.0
8
0.0 1.0 0.0 1.0 1.0 0.0 0.0 1.0
8
0.0991634 0.900837 0.24961 0.75039 0.171936 0.828064 0.58906 0.41094
8
0.0 1.0 1.0 0.0 0.0 1.0 0.0 1.0
8
0.0 1.0 1.0 0.0 0.0 1.0 1.0 0.0
8
0.0 1.0 1.0 0.0 0.0 1.0 0.0 1.0
8
0.84025 0.15975 0.174717 0.825283 0.648119 0.351881 0.0896921 0.910308
8
0.802821 0.197179 0.709988 0.290012 0.336843 0.663157 0.400393 0.599607
8
1.0 0.0 0.0 1.0 0.0 1.0 1.0 0.0
8
0.0 1.0 1.0 0.0 1.0 0.0 0.0 1.0
8
0.917398 0.0826021 0.293719 0.706281 0.194761 0.805239 0.57607 0.42393
8
0.489353 0.510647 0.571275 0.428725 0.4405 0.5595 0.294304 0.705696
8
0.0 1.0 1.0 0.0 0.0 1.0 1.0 0.0
8
0.0 1.0 1.0 0.0 1.0 0.0 1.0 0.0
8
1.0 0.0 0.0 1.0 1.0 0.0 0.0 1.0
8
0.413063 0.586937 0.49315 0.50685 0.424275 0.575725 0.321615 0.678385
8
0.0 1.0 1.0 0.0 1.0 0.0 1.0 0.0
8
1.0 0.0 0.0 1.0 1.0 0.0 0.0 1.0
8
1.0 0.0 1.0 0.0 0.0 1.0 0.0 1.0
8
1.0 0.0 1.0 0.0 1.0 0.0 0.0 1.0
8
0.219791 0.780209 0.236381 0.763619 0.614063 0.385937 0.700729 0.299271
8
1.0 0.0 0.0 1.0 1.0 0.0 0.0 1.0
8
0.0 1.0 1.0 0.0 1.0 0.0 1.0 0.0
4
1.0 0.0 0.0 1.0
8
0.0 1.0 1.0 0.0 0.0 1.0 1.0 0.0
8
0.0435052 0.956495 0.123962 0.876038 0.604469 0.395531 0.322899 0.677101
8
1.0 0.0 1.0 0.0 1.0 0.0 0.0 1.0
8
1.0 0.0 1.0 0.0 1.0 0.0 0.0 1.0
8
1.0 0.0 0.0 1.0 0.0 1.0 1.0 0.0
8
0.0 1.0 0.0 1.0 1.0 0.0 1.0 0.0
8
1.0 0.0 0.0 1.0 0.0 1.0 0.0 1.0
8
1.0 0.0 1.0 0.0 0.0 1.0 1.0 0.0
8
1.0 0.0 0.0 1.0 0.0 1.0 1.0 0.0
8
0.0 1.0 0.0 1.0 0.0 1.0 1.0 0.0
8
0.0 1.0 0.0 1.0 1.0 0.0 1.0 0.0
8
1.0 0.0 1.0 0.0 0.0 1.0 0.0 1.0
8
0.114121 0.885879 0.483362 0.516638 0.692825 0.307175 0.903302 0.0966982
8
0.0 1.0 0.0 1.0 0.0 1.0 1.0 0.0
8
0.235141 0.764859 0.506715 0.493285 0.938205 0.0617952 0.842343 0.157657
8
0.979035 0.0209652 0.137588 0.862412 0.475773 0.524227 0.177141 0.822859
8
1.0 0.0 1.0 0.0 0.0 1.0 0.0 1.0
8
1.0 0.0 1.0 0.0 0.0 1.0 1.0 0.0
8
1.0 0.0 0.0 1.0 1.0 0.0 0.0 1.0
8
1.0 0.0 0.0 1.0 1.0 0.0 1.0 0.0
8
0.0 1.0 1.0 0.0 0.0 1.0 1.0 0.0
8
1.0 0.0 0.0 1.0 0.0 1.0 0.0 1.0
8
0.0 1.0 1.0 0.0 1.0 0.0 1.0 0.0
8
0.0 1.0 0.0 1.0 1.0 0.0 1.0 0.0
8
0.590804 0.409196 0.743905 0.256095 0.984422 0.0155783 0.104175 0.895825
4
1.0 0.0 0.0 1.0
8
0.0 1.0 0.0 1.0 1.0 0.0 1.0 0.0
8
1.0 0.0 0.0 1.0 0.0 1.0 0.0 1.0
8
0.870863 0.129137 0.112045 0.887955 0.0341473 0.965853 0.356496 0.643504
8
0.0 1.0 0.0 1.0 1.0 0.0 0.0 1.0
8
0.0 1.0 0.0 1.0 0.0 1.0 1.0 0.0
8
0.0 1.0 1.0 0.0 1.0 0.0 1.0 0.0
8
1.0 0.0 0.0 1.0 0.0 1.0 0.0 1.0
8
1.0 0.0 0.0 1.0 0.0 1.0 1.0 0.0
8
1.0 0.0 1.0 0.0 0.0 1.0 1.0 0.0
8
0.0 1.0 1.0 0.0 0.0 1.0 0.0 1.0
8
1.0 0.0 0.0 1.0 1.0 0.0 0.0 1.0
8
1.0 0.0 0.0 1.0 1.0 0.0 0.0 1.0
8
0.0 1.0 1.0 0.0 0.0 1.0 1.0 0.0
8
1.0 0.0 0.0 1.0 0.0 1.0 1.0 0.0
8
0.516867 0.483133 0.513852 0.486148 0.994283 0.00571663 0.570978 0.429022
8
0.299147 0.700853 0.897569 0.102431 0.404186 0.595814 0.937926 0.0620742
8
0.0 1.0 1.0 0.0 0.0 1.0 1.0 0.0
8
0.0 1.0 0.0 1.0 0.0 1.0 1.0 0.0
8
0.0 1.0 1.0 0.0 0.0 1.0 0.0 1.0
8
1.0 0.0 1.0 0.0 0.0 1.0 1.0 0.0
8
0.64841 0.35159 0.147053 0.852947 0.310688 0.689312 0.642693 0.357307
8
1.0 0.0 0.0 1.0 0.0 1.0 1.0 0.0
8
0.016655 0.983345 0.614599 0.385401 0.980734 0.0192663 0.575841 0.424159
8
1.0 0.0 0.0 1.0 1.0 0.0 1.0 0.0
8
0.0 1.0 1.0 0.0 1.0 0.0 0.0 1.0
4
1.0 0.0 0.0 1.0
8
0.395505 0.604495 0.755612 0.244388 0.52086 0.47914 0.192342 0.807658
8
0.0 1.0 0.0 1.0 0.0 1.0 1.0 0.0
8
0.00154397 0.998456 0.219794 0.780206 0.868322 0.131678 0.018199 0.981801
8
0.849056 0.150944 0.59404 0.40596 0.217228 0.782772 0.208866 0.791134
8
0.0 1.0 0.0 1.0 1.0 0.0 0.0 1.0
8
0.0306213 0.969379 0.876432 0.123568 0.895607 0.104393 0.887905 0.112095
8
0.291112 0.708888 0.643517 0.356483 0.287965 0.712035 0.483454 0.516546
8
1.0 0.0 0.0 1.0 0.0 1.0 1.0 0.0
8
1.0 0.0 0.0 1.0 1.0 0.0 0.0 1.0
8
1.0 0.0 0.0 1.0 1.0 0.0 0.0 1.0
8
1.0 0.0 1.0 0.0 1.0 0.0 0.0 1.0
8
1.0 0.0 0.0 1.0 0.0 1.0 1.0 0.0
8
0.0 1.0 1.0 0.0 1.0 0.0 1.0 0.0
8
0.304673 0.695327 0.0546454 0.945355 0.869154 0.130846 0.398928 0.601072
8
0.0 1.0 1.0 0.0 1.0 0.0 1.0 0.0
8
0.0 1.0 1.0 0.0 0.0 1.0 1.0 0.0
8
0.242116 0.757884 0.298349 0.701651 0.0459825 0.954017 0.696275 0.303725
8
0.213249 0.786751 0.908774 0.0912261 0.719152 0.280848 0.256948 0.743052
8
0.0 1.0 0.0 1.0 0.0 1.0 1.0 0.0
8
1.0 0.0 1.0 0.0 1.0 0.0 0.0 1.0
8
0.0 1.0 0.0 1.0 1.0 0.0 0.0 1.0
8
1.0 0.0 0.0 1.0 1.0 0.0 1.0 0.0
8
0.0 1.0 0.0 1.0 0.0 1.0 1.0 0.0
8
0.0 1.0 1.0 0.0 1.0 0.0 1.0 0.0
8
0.0 1.0 1.0 0.0 1.0 0.0 1.0 0.0
4
0.0 1.0 1.0 0.0
8
1.0 0.0 0.0 1.0 1.0 0.0 1.0 0.0
8
0.412797 0.587203 0.0884384 0.911562 0.934313 0.0656866 0.620911 0.379089
8
0.0 1.0 0.0 1.0 1.0 0.0 1.0 0.0
8
1.0 0.0 0.0 1.0 1.0 0.0 1.0 0.0
8
0.413285 0.586715 0.211822 0.788178 0.466599 0.533401 0.718505 0.281495
8
1.0 0.0 0.0 1.0 1.0 0.0 1.0 0.0
8
1.0 0.0 0.0 1.0 1.0 0.0 0.0 1.0
8
0.518793 0.481207 0.915274 0.0847265 0.0171957 0.982804 0.453106 0.546894
8
0.0 1.0 1.0 0.0 0.0 1.0 1.0 0.0
8
0.343648 0.656352 0.505023 0.494977 0.159135 0.840865 0.468593 0.531407
8
1.0 0.0 0.0 1.0 0.0 1.0 1.0 0.0
8
0.0 1.0 0.0 1.0 1.0 0.0 1.0 0.0
8
0.0 1.0 0.0 1.0 1.0 0.0 1.0 0.0
8
0.0 1.0 0.0 1.0 0.0 1.0 1.0 0.0
8
0.0 1.0 0.0 1.0 0.0 1.0 1.0 0.0
8
1.0 0.0 0.0 1.0 0.0 1.0 1.0 0.0
8
1.0 0.0 1.0 0.0 0.0 1.0 0.0 1.0
8
0.0 1.0 0.0 1.0 0.0 1.0 1.0 0.0
8
0.0 1.0 0.0 1.0 0.0 1.0 1.0 0.0
8
0.0 1.0 0.0 1.0 0.0 1.0 1.0 0.0
8
0.322683 0.677317 0.83213 0.16787 0.332947 0.667053 0.369689 0.630311
8
0.0 1.0 1.0 0.0 1.0 0.0 1.0 0.0
8
0.0 1.0 1.0 0.0 0.0 1.0 0.0 1.0
8
0.0 1.0 0.0 1.0 0.0 1.0 1.0 0.0
8
1.0 0.0 1.0 0.0 0.0 1.0 0.0 1.0
4
1.0 0.0 0.0 1.0
8
0.0 1.0 0.0 1.0 1.0 0.0 0.0 1.0
8
0.0 1.0 1.0 0.0 1.0 0.0 0.0 1.0
8
0.614003 0.385997 0.101073 0.898927 0.623656 0.376344 0.940377 0.0596233
8
0.0 1.0 0.0 1.0 1.0 0.0 1.0 0.0
8
1.0 0.0 1.0 0.0 0.0 1.0 1.0 0.0
8
1.0 0.0 0.0 1.0 1.0 0.0 1.0 0.0
8
1.0 0.0 1.0 0.0 1.0 0.0 0.0 1.0
8
1.0 0.0 0.0 1.0 1.0 0.0 1.0 0.0
8
0.0 1.0 0.0 1.0 1.0 0.0 0.0 1.0
8
1.0 0.0 1.0 0.0 1.0 0.0 0.0 1.0
8
0.0 1.0 1.0 0.0 1.0 0.0 0.0 1.0
8
0.0 1.0 1.0 0.0 0.0 1.0 1.0 0.0
8
0.269756 0.730244 0.269679 0.730321 0.342456 0.657544 0.72143 0.27857
8
0.488388 0.511612 0.755562 0.244438 0.0792987 0.920701 0.672469 0.327531
8
0.0 1.0 1.0 0.0 1.0 0.0 1.0 0.0
8
1.0 0.0 0.0 1.0 0.0 1.0 0.0 1.0
8
0.0 1.0 0.0 1.0 1.0 0.0 0.0 1.0
8
0.490178 0.509822 0.133161 0.866839 0.641036 0.358964 0.058588 0.941412
8
1.0 0.0 0.0 1.0 1.0 0.0 1.0 0.0
8
0.0 1.0 1.0 0.0 1.0 0.0 0.0 1.0
8
1.0 0.0 0.0 1.0 1.0 0.0 0.0 1.0
8
0.409772 0.590228 0.963029 0.0369713 0.722163 0.277837 0.192777 0.807223
8
0.0 1.0 0.0 1.0 1.0 0.0 0.0 1.0
8
0.50622 0.49378 0.950372 0.0496277 0.490428 0.509572 0.564808 0.435192
8
0.0 1.0 0.0 1.0 0.0 1.0 1.0 0.0
4
0.966963 0.0330374 0.181794 0.818206
8
1.0 0.0 1.0 0.0 0.0 1.0 1.0 0.0
8
1.0 0.0 0.0 1.0 0.0 1.0 0.0 1.0
8
0.0 1.0 1.0 0.0 1.0 0.0 0.0 1.0
8
0.0 1.0 1.0 0.0 1.0 0.0 1.0 0.0
8
0.0 1.0 0.0 1.0 0.0 1.0 1.0 0.0
8
0.266833 0.733167 0.209152 0.790848 0.990989 0.00901063 0.0150946 0.984905
8
0.0 1.0 0.0 1.0 0.0 1.0 1.0 0.0
8
0.0982041 0.901796 0.625649 0.374351 0.429461 0.570539 0.479454 0.520546
8
1.0 0.0 0.0 1.0 0.0 1.0 1.0 0.0
8
0.0 1.0 1.0 0.0 0.0 1.0 1.0 0.0
8
1.0 0.0 0.0 1.0 0.0 1.0 1.0 0.0
8
0.0 1.0 1.0 0.0 1.0 0.0 1.0 0.0
8
0.0 1.0 1.0 0.0 0.0 1.0 0.0 1.0
8
1.0 0.0 0.0 1.0 0.0 1.0 0.0 1.0
8
1.0 0.0 1.0 0.0 1.0 0.0 0.0 1.0
8
0.0 1.0 0.0 1.0 1.0 0.0 0.0 1.0
8
1.0 0.0 0.0 1.0 1.0 0.0 1.0 0.0
8
0.0 1.0 1.0 0.0 0.0 1.0 1.0 0.0
8
0.895931 0.104069 0.427891 0.572109 0.986268 0.0137317 0.15702 0.84298
8
0.0 1.0 1.0 0.0 0.0 1.0 1.0 0.0
8
0.577932 0.422068 0.486397 0.513603 0.378207 0.621793 0.803454 0.196546
8
0.0 1.0 1.0 0.0 0.0 1.0 0.0 1.0
8
0.0 1.0 1.0 0.0 0.0 1.0 1.0 0.0
8
1.0 0.0 0.0 1.0 1.0 0.0 0.0 1.0
8
1.0 0.0 0.0 1.0 1.0 0.0 0.0 1.0
4
0.0 1.0 1.0 0.0
8
1.0 0.0 0.0 1.0 0.0 1.0 0.0 1.0
8
0.0 1.0 0.0 1.0 1.0 0.0 1.0 0.0
8
0.0 1.0 1.0 0.0 0.0 1.0 0.0 1.0
8
0.792293 0.207707 0.899927 0.100073 0.726662 0.273338 0.85034 0.14966
8
1.0 0.0 0.0 1.0 0.0 1.0 0.0 1.0
8
0.0 1.0 1.0 0.0 0.0 1.0 0.0 1.0
8
1.0 0.0 1.0 0.0 0.0 1.0 1.0 0.0
8
0.0 1.0 1.0 0.0 1.0 0.0 1.0 0.0
8
1.0 0.0 0.0 1.0 0.0 1.0 0.0 1.0
8
1.0 0.0 1.0 0.0 1.0 0.0 0.0 1.0
8
1.0 0.0 1.0 0.0 0.0 1.0 1.0 0.0
8
0.473598 0.526402 0.857572 0.142428 0.349911 0.650089 0.138097 0.861903
8
0.0 1.0 0.0 1.0 0.0 1.0 1.0 0.0
8
0.0 1.0 1.0 0.0 0.0 1.0 0.0 1.0
8
0.0 1.0 1.0 0.0 1.0 0.0 0.0 1.0
8
1.0 0.0 1.0 0.0 1.0 0.0 0.0 1.0
8
0.0 1.0 1.0 0.0 1.0 0.0 0.0 1.0
8
0.0 1.0 0.0 1.0 1.0 0.0 1.0 0.0
8
1.0 0.0 1.0 0.0 1.0 0.0 0.0 1.0
8
0.0 1.0 1.0 0.0 0.0 1.0 0.0 1.0
8
0.0 1.0 0.0 1.0 1.0 0.0 1.0 0.0
8
1.0 0.0 0.0 1.0 0.0 1.0 0.0 1.0
8
0.0 1.0 1.0 0.0 0.0 1.0 0.0 1.0
8
0.0 1.0 0.0 1.0 1.0 0.0 0.0 1.0
8
1.0 0.0 1.0 0.0 1.0 0.0 0.0 1.0
4
0.0 1.0 1.0 0.0
8
1.0 0.0 0.0 1.0 0.0 1.0 1.0 0.0
8
0.0 1.0 0.0 1.0 0.0 1.0 1.0 0.0
8
0.0 1.0 1.0 0.0 0.0 1.0 1.0 0.0
8
1.0 0.0 1.0 0.0 1.0 0.0 0.0 1.0
8
0.262005 0.737995 0.35476 0.64524 0.74782 0.25218 0.369782 0.630218
8
1.0 0.0 1.0 0.0 1.0 0.0 0.0 1.0
8
0.0 1.0 0.0 1.0 0.0 1.0 1.0 0.0
8
1.0 0.0 1.0 0.0 0.0 1.0 0.0 1.0
8
0.730499 0.269501 0.613793 0.386207 0.189777 0.810223 0.683565 0.316435
8
1.0 0.0 1.0 0.0 0.0 1.0 0.0 1.0
8
0.270886 0.729114 0.49044 0.50956 0.689275 0.310725 0.640667 0.359333
8
1.0 0.0 1.0 0.0 0.0 1.0 0.0 1.0
8
0.0 1.0 0.0 1.0 1.0 0.0 1.0 0.0
8
1.0 0.0 0.0 1.0 0.0 1.0 0.0 1.0
8
0.0 1.0 1.0 0.0 1.0 0.0 1.0 0.0
8
1.0 0.0 0.0 1.0 0.0 1.0 1.0 0.0
8
0.0 1.0 1.0 0.0 0.0 1.0 0.0 1.0
8
1.0 0.0 1.0 0.0 1.0 0.0 0.0 1.0
8
0.0 1.0 0.0 1.0 1.0 0.0 1.0 0.0
8
0.0 1.0 0.0 1.0 1.0 0.0 0.0 1.0
8
1.0 0.0 1.0 0.0 1.0 0.0 0.0 1.0
8
0.0 1.0 0.0 1.0 0.0 1.0 1.0 0.0
8
0.0 1.0 1.0 0.0 1.0 0.0 1.0 0.0
8
1.0 0.0 1.0 0.0 1.0 0.0 0.0 1.0
8
1.0 0.0 0.0 1.0 0.0 1.0 1.0 0.0
4
1.0 0.0 0.0 1.0
8
0.79515 0.20485 0.780883 0.219117 0.0139866 0.986013 0.231811 0.768189
8
0.0 1.0 0.0 1.0 1.0 0.0 0.0 1.0
8
0.0 1.0 0.0 1.0 1.0 0.0 1.0 0.0
8
0.257792 0.742208 0.234394 0.765606 0.939814 0.0601859 0.397128 0.602872
8
1.0 0.0 1.0 0.0 0.0 1.0 0.0 1.0
8
0.0 1.0 1.0 0.0 1.0 0.0 0.0 1.0
8
0.0 1.0 1.0 0.0 1.0 0.0 0.0 1.0
8
0.119166 0.880834 0.92427 0.0757301 0.706723 0.293277 0.285575 0.714425
8
0.0 1.0 0.0 1.0 1.0 0.0 1.0 0.0
8
0.828635 0.171365 0.14335 0.85665 0.12629 0.87371 0.768449 0.231551
8
1.0 0.0 0.0 1.0 1.0 0.0 1.0 0.0
8
0.0 1.0 1.0 0.0 0.0 1.0 1.0 0.0
8
0.0 1.0 1.0 0.0 1.0 0.0 1.0 0.0
8
0.0 1.0 0.0 1.0 1.0 0.0 0.0 1.0
8
0.687925 0.312075 0.123016 0.876984 0.643874 0.356126 0.573482 0.426518
8
0.0 1.0 0.0 1.0 0.0 1.0 1.0 0.0
8
1.0 0.0 0.0 1.0 0.0 1.0 0.0 1.0
8
0.0 1.0 1.0 0.0 1.0 0.0 1.0 0.0
8
0.957564 0.0424364 0.298269 0.701731 0.0195558 0.980444 0.650222 0.349778
8
0.0443114 0.955689 0.462046 0.537954 0.386017 0.613983 0.77579 0.22421
8
1.0 0.0 0.0 1.0 0.0 1.0 1.0 0.0
8
1.0 0.0 1.0 0.0 0.0 1.0 0.0 1.0
8
0.0 1.0 1.0 0.0 1.0 0.0 0.0 1.0
8
0.857609 0.142391 0.819946 0.180054 0.5196 0.4804 0.0377575 0.962242
8
0.0 1.0 0.0 1.0 1.0 0.0 0.0 1.0
4
1.0 0.0 0.0 1.0
8
1.0 0.0 0.0 1.0 1.0 0.0 1.0 0.0
8
0.0 1.0 0.0 1.0 1.0 0.0 0.0 1.0
8
0.0 1.0 0.0 1.0 1.0 0.0 1.0 0.0
8
1.0 0.0 0.0 1.0 1.0 0.0 1.0 0.0
8
1.0 0.0 0.0 1.0 1.0 0.0 1.0 0.0
8
1.0 0.0 0.0 1.0 1.0 0.0 0.0 1.0
8
0.0 1.0 1.0 0.0 0.0 1.0 0.0 1.0
8
1.0 0.0 0.0 1.0 0.0 1.0 0.0 1.0
8
0.0 1.0 1.0 0.0 0.0 1.0 1.0 0.0
8
0.0 1.0 0.0 1.0 1.0 0.0 1.0 0.0
8
1.0 0.0 1.0 0.0 0.0 1.0 1.0 0.0
8
1.0 0.0 0.0 1.0 1.0 0.0 0.0 1.0
8
0.109446 0.890554 0.713712 0.286288 0.721358 0.278642 0.539248 0.460752
8
0.0 1.0 0.0 1.0 1.0 0.0 0.0 1.0
8
1.0 0.0 0.0 1.0 0.0 1.0 1.0 0.0
8
0.0 1.0 1.0 0.0 0.0 1.0 1.0 0.0
8
0.822874 0.177126 0.389021 0.610979 0.0781253 0.921875 0.134248 0.865752
8
0.0 1.0 1.0 0.0 0.0 1.0 1.0 0.0
8
1.0 0.0 0.0 1.0 0.0 1.0 0.0 1.0
8
1.0 0.0 0.0 1.0 0.0 1.0 0.0 1.0
8
1.0 0.0 1.0 0.0 0.0 1.0 1.0 0.0
8
1.0 0.0 0.0 1.0 0.0 1.0 1.0 0.0
8
0.0 1.0 0.0 1.0 1.0 0.0 0.0 1.0
8
0.416938 0.583062 0.503944 0.496056 0.236456 0.763544 0.945967 0.0540333
8
1.0 0.0 1.0 0.0 1.0 0.0 0.0 1.0
4
0.594574 0.405426 0.284647 0.715353
8
1.0 0.0 1.0 0.0 0.0 1.0 0.0 1.0
8
1.0 0.0 1.0 0.0 0.0 1.0 0.0 1.0
8
0.476094 0.523906 0.613252 0.386748 0.597448 0.402552 0.125658 0.874342
8
1.0 0.0 0.0 1.0 1.0 0.0 0.0 1.0
8
0.0 1.0 1.0 0.0 0.0 1.0 1.0 0.0
8
1.0 0.0 1.0 0.0 0.0 1.0 1.0 0.0
8
1.0 0.0 0.0 1.0 1.0 0.0 1.0 0.0
8
0.0 1.0 0.0 1.0 0.0 1.0 1.0 0.0
8
1.0 0.0 1.0 0.0 0.0 1.0 1.0 0.0
8
1.0 0.0 0.0 1.0 0.0 1.0 1.0 0.0
8
0.0 1.0 1.0 0.0 0.0 1.0 0.0 1.0
8
0.371212 0.628788 0.00439895 0.995601 0.987256 0.012744 0.472581 0.527419
8
0.0 1.0 0.0 1.0 1.0 0.0 1.0 0.0
8
0.0 1.0 0.0 1.0 1.0 0.0 0.0 1.0
8
0.0729052 0.927095 0.234247 0.765753 0.965594 0.0344062 0.196199 0.803801
8
0.0 1.0 1.0 0.0 0.0 1.0 1.0 0.0
8
0.0 1.0 1.0 0.0 1.0 0.0 0.0 1.0
8
1.0 0.0 1.0 0.0 0.0 1.0 1.0 0.0
8
0.588833 0.411167 0.704208 0.295792 0.790554 0.209446 0.247867 0.752133
8
0.158159 0.841841 0.405006 0.594994 0.0361832 0.963817 0.721023 0.278977
8
0.0 1.0 1.0 0.0 0.0 1.0 0.0 1.0
8
1.0 0.0 0.0 1.0 0.0 1.0 0.0 1.0
8
0.540982 0.459018 0.436825 0.563175 0.363431 0.636569 0.629502 0.370498
8
1.0 0.0 1.0 0.0 0.0 1.0 0.0 1.0
8
0.0 1.0 0.0 1.0 0.0 1.0 1.0 0.0
4
0.83167 0.16833 0.854334 0.145666
8
1.0 0.0 0.0 1.0 0.0 1.0 1.0 0.0
8
1.0 0.0 0.0 1.0 1.0 0.0 0.0 1.0
8
1.0 0.0 0.0 1.0 1.0 0.0 0.0 1.0
8
1.0 0.0 0.0 1.0 1.0 0.0 0.0 1.0
8
1.0 0.0 0.0 1.0 1.0 0.0 1.0 0.0
8
0.0 1.0 1.0 0.0 0.0 1.0 0.0 1.0
8
1.0 0.0 0.0 1.0 1.0 0.0 1.0 0.0
8
0.0 1.0 1.0 0.0 0.0 1.0 0.0 1.0
8
0.0 1.0 1.0 0.0 1.0 0.0 0.0 1.0
8
0.0 1.0 1.0 0.0 0.0 1.0 0.0 1.0
8
1.0 0.0 1.0 0.0 0.0 1.0 1.0 0.0
8
0.11177 0.88823 0.861896 0.138104 0.451708 0.548292 0.653993 0.346007
8
0.782443 0.217557 0.188004 0.811996 0.665165 0.334835 0.598389 0.401611
8
1.0 0.0 0.0 1.0 1.0 0.0 0.0 1.0
8
1.0 0.0 0.0 1.0 0.0 1.0 0.0 1.0
8
1.0 0.0 0.0 1.0 1.0 0.0 1.0 0.0
8
1.0 0.0 0.0 1.0 1.0 0.0 1.0 0.0
8
0.0 1.0 1.0 0.0 1.0 0.0 0.0 1.0
8
1.0 0.0 1.0 0.0 0.0 1.0 1.0 0.0
8
0.988964 0.0110357 0.639608 0.360392 0.825145 0.174855 0.108655 0.891345
8
1.0 0.0 0.0 1.0 1.0 0.0 1.0 0.0
8
0.0848549 0.915145 0.0884721 0.911528 0.249414 0.750586 0.333213 0.666787
8
0.0 1.0 1.0 0.0 1.0 0.0 1.0 0.0
8
1.0 0.0 0.0 1.0 0.0 1.0 0.0 1.0
8
1.0 0.0 1.0 0.0 0.0 1.0 0.0 1.0
4
1.0 0.0 0.0 1.0
8
1.0 0.0 1.0 0.0 0.0 1.0 0.0 1.0
8
1.0 0.0 1.0 0.0 0.0 1.0 1.0 0.0
8
0.0 1.0 0.0 1.0 0.0 1.0 1.0 0.0
8
1.0 0.0 0.0 1.0 1.0 0.0 0.0 1.0
8
0.801638 0.198362 0.732281 0.267719 0.120054 0.879946 0.235471 0.764529
8
0.641442 0.358558 0.550097 0.449903 0.798376 0.201624 0.0983002 0.9017
8
0.300892 0.699108 0.380302 0.619698 0.265931 0.734069 0.348971 0.651029
8
0.49386 0.50614 0.841745 0.158255 0.854701 0.145299 0.948645 0.0513554
8
1.0 0.0 1.0 0.0 0.0 1.0 1.0 0.0
8
0.0 1.0 1.0 0.0 1.0 0.0 0.0 1.0
8
1.0 0.0 0.0 1.0 0.0 1.0 1.0 0.0
8
1.0 0.0 1.0 0.0 1.0 0.0 0.0 1.0
8
1.0 0.0 1.0 0.0 0.0 1.0 1.0 0.0
8
0.0 1.0 1.0 0.0 0.0 1.0 1.0 0.0
8
1.0 0.0 1.0 0.0 0.0 1.0 0.0 1.0
8
1.0 0.0 0.0 1.0 0.0 1.0 0.0 1.0
8
0.0 1.0 0.0 1.0 1.0 0.0 1.0 0.0
8
0.0879748 0.912025 0.633586 0.366414 0.74773 0.25227 0.460819 0.539181
8
0.0 1.0 0.0 1.0 1.0 0.0 1.0 0.0
8
0.0 1.0 1.0 0.0 0.0 1.0 0.0 1.0
8
1.0 0.0 0.0 1.0 0.0 1.0 0.0 1.0
8
1.0 0.0 0.0 1.0 0.0 1.0 0.0 1.0
8
1.0 0.0 0.0 1.0 0.0 1.0 0.0 1.0
8
1.0 0.0 0.0 1.0 0.0 1.0 0.0 1.0
8
0.0 1.0 0.0 1.0 1.0 0.0 0.0 1.0
4
1.0 0.0 0.0 1.0
8
1.0 0.0 0.0 1.0 1.0 0.0 1.0 0.0
8
0.541589 0.458411 0.921158 0.0788424 0.282109 0.717891 0.958996 0.0410041
8
0.0 1.0 1.0 0.0 1.0 0.0 0.0 1.0
8
0.789564 0.210436 0.70902 0.29098 0.467044 0.532956 0.176604 0.823396
8
0.0 1.0 0.0 1.0 1.0 0.0 0.0 1.0
8
1.0 0.0 0.0 1.0 0.0 1.0 1.0 0.0
8
0.0 1.0 0.0 1.0 1.0 0.0 1.0 0.0
8
0.0 1.0 1.0 0.0 0.0 1.0 0.0 1.0
8
0.0 1.0 0.0 1.0 1.0 0.0 1.0 0.0
8
1.0 0.0 0.0 1.0 1.0 0.0 1.0 0.0
8
0.0 1.0 1.0 0.0 0.0 1.0 0.0 1.0
8
0.0 1.0 1.0 0.0 1.0 0.0 0.0 1.0
8
0.294412 0.705588 0.896297 0.103703 0.934 0.0660003 0.232414 0.767586
8
1.0 0.0 0.0 1.0 0.0 1.0 1.0 0.0
8
1.0 0.0 0.0 1.0 0.0 1.0 0.0 1.0
8
1.0 0.0 1.0 0.0 0.0 1.0 0.0 1.0
8
0.0 1.0 1.0 0.0 1.0 0.0 0.0 1.0
8
1.0 0.0 0.0 1.0 0.0 1.0 0.0 1.0
8
1.0 0.0 1.0 0.0 0.0 1.0 1.0 0.0
8
1.0 0.0 0.0 1.0 0.0 1.0 0.0 1.0
8
1.0 0.0 1.0 0.0 0.0 1.0 1.0 0.0
8
1.0 0.0 0.0 1.0 1.0 0.0 1.0 0.0
8
1.0 0.0 1.0 0.0 0.0 1.0 1.0 0.0
8
1.0 0.0 0.0 1.0 1.0 0.0 1.0 0.0
8
1.0 0.0 1.0 0.0 0.0 1.0 1.0 0.0
4
0.0 1.0 1.0 0.0
8
0.0 1.0 0.0 1.0 1.0 0.0 0.0 1.0
8
0.0 1.0 0.0 1.0 1.0 0.0 1.0 0.0
8
1.0 0.0 0.0 1.0 1.0 0.0 0.0 1.0
8
1.0 0.0 0.0 1.0 1.0 0.0 0.0 1.0
8
1.0 0.0 0.0 1.0 1.0 0.0 1.0 0.0
8
0.0 1.0 1.0 0.0 1.0 0.0 0.0 1.0
8
0.0 1.0 0.0 1.0 0.0 1.0 1.0 0.0
8
1.0 0.0 1.0 0.0 1.0 0.0 0.0 1.0
8
1.0 0.0 0.0 1.0 1.0 0.0 1.0 0.0
8
1.0 0.0 0.0 1.0 1.0 0.0 0.0 1.0
8
0.0 1.0 1.0 0.0 0.0 1.0 1.0 0.0
8
0.0 1.0 1.0 0.0 0.0 1.0 1.0 0.0
8
1.0 0.0 1.0 0.0 0.0 1.0 1.0 0.0
8
1.0 0.0 1.0 0.0 1.0 0.0 0.0 1.0
8
1.0 0.0 0.0 1.0 1.0 0.0 0.0 1.0
8
0.0 1.0 1.0 0.0 1.0 0.0 1.0 0.0
8
1.0 0.0 1.0 0.0 0.0 1.0 0.0 1.0
8
1.0 0.0 0.0 1.0 0.0 1.0 1.0 0.0
8
1.0 0.0 0.0 1.0 0.0 1.0 0.0 1.0
8
1.0 0.0 1.0 0.0 0.0 1.0 1.0 0.0
8
1.0 0.0 0.0 1.0 1.0 0.0 0.0 1.0
8
0.0 1.0 1.0 0.0 1.0 0.0 0.0 1.0
8
0.0 1.0 0.0 1.0 1.0 0.0 1.0 0.0
8
1.0 0.0 0.0 1.0 0.0 1.0 0.0 1.0
8
1.0 0.0 0.0 1.0 0.0 1.0 1.0 0.0
4
1.0 0.0 0.0 1.0
8
1.0 0.0 0.0 1.0 0.0 1.0 1.0 0.0
8
0.0 1.0 1.0 0.0 0.0 1.0 0.0 1.0
8
1.0 0.0 1.0 0.0 1.0 0.0 0.0 1.0
8
0.288849 0.711151 0.402967 0.597033 0.981909 0.0180912 0.691352 0.308648
8
0.100133 0.899867 0.323886 0.676114 0.936329 0.063671 0.474847 0.525153
8
1.0 0.0 1.0 0.0 1.0 0.0 0.0 1.0
8
0.0 1.0 1.0 0.0 0.0 1.0 1.0 0.0
8
0.0 1.0 0.0 1.0 1.0 0.0 1.0 0.0
8
1.0 0.0 0.0 1.0 0.0 1.0 0.0 1.0
8
1.0 0.0 0.0 1.0 0.0 1.0 0.0 1.0
8
1.0 0.0 0.0 1.0 0.0 1.0 1.0 0.0
8
1.0 0.0 0.0 1.0 0.0 1.0 0.0 1.0
8
1.0 0.0 0.0 1.0 0.0 1.0 1.0 0.0
8
0.577665 0.422335 0.923809 0.076191 0.836541 0.163459 0.348751 0.651249
8
1.0 0.0 0.0 1.0 1.0 0.0 1.0 0.0
8
0.0 1.0 0.0 1.0 1.0 0.0 0.0 1.0
8
0.0 1.0 1.0 0.0 1.0 0.0 1.0 0.0
8
1.0 0.0 0.0 1.0 1.0 0.0 1.0 0.0
8
0.850529 0.149471 0.470176 0.529824 0.0131867 0.986813 0.984535 0.0154652
8
1.0 0.0 1.0 0.0 0.0 1.0 1.0 0.0
8
0.817415 0.182585 0.671216 0.328784 0.674756 0.325244 0.586794 0.413206
8
0.0 1.0 1.0 0.0 0.0 1.0 1.0 0.0
8
1.0 0.0 1.0 0.0 0.0 1.0 0.0 1.0
8
1.0 0.0 1.0 0.0 1.0 0.0 0.0 1.0
8
0.492425 0.507575 0.890718 0.109282 0.260824 0.739176 0.505612 0.494388
4
0.739711 0.260289 0.484516 0.515484
8
1.0 0.0 0.0 1.0 0.0 1.0 0.0 1.0
8
0.0231595 0.976841 0.546616 0.453384 0.409615 0.590385 0.895549 0.104451
8
0.0 1.0 1.0 0.0 1.0 0.0 1.0 0.0
8
0.0747102 0.92529 0.690781 0.309219 0.0145819 0.985418 0.460787 0.539213
8
0.0 1.0 1.0 0.0 0.0 1.0 0.0 1.0
8
0.0 1.0 1.0 0.0 1.0 0.0 0.0 1.0
8
0.0 1.0 1.0 0.0 1.0 0.0 0.0 1.0
8
0.0 1.0 0.0 1.0 1.0 0.0 0.0 1.0
8
0.904919 0.0950811 0.175069 0.824931 0.65976 0.34024 0.786442 0.213558
8
0.0 1.0 1.0 0.0 0.0 1.0 1.0 0.0
8
1.0 0.0 0.0 1.0 1.0 0.0 1.0 0.0
8
1.0 0.0 0.0 1.0 1.0 0.0 1.0 0.0
8
1.0 0.0 1.0 0.0 0.0 1.0 0.0 1.0
8
0.0 1.0 1.0 0.0 0.0 1.0 0.0 1.0
8
1.0 0.0 0.0 1.0 0.0 1.0 0.0 1.0
8
1.0 0.0 0.0 1.0 1.0 0.0 0.0 1.0
8
0.0 1.0 1.0 0.0 0.0 1.0 1.0 0.0
8
1.0 0.0 0.0 1.0 1.0 0.0 0.0 1.0
8
1.0 0.0 1.0 0.0 0.0 1.0 1.0 0.0
8
0.799952 0.200048 0.396834 0.603166 0.795588 0.204412 0.0861839 0.913816
8
0.773892 0.226108 0.0321756 0.967824 0.327085 0.672915 0.431234 0.568766
8
1.0 0.0 1.0 0.0 0.0 1.0 1.0 0.0
8
0.0 1.0 0.0 1.0 1.0 0.0 0.0 1.0
8
1.0 0.0 0.0 1.0 1.0 0.0 0.0 1.0
8
1.0 0.0 1.0 0.0 0.0 1.0 1.0 0.0
4
1.0 0.0 0.0 1.0
8
0.397691 0.602309 0.709697 0.290303 0.74354 0.25646 0.171583 0.828417
8
1.0 0.0 1.0 0.0 0.0 1.0 0.0 1.0
8
1.0 0.0 1.0 0.0 0.0 1.0 1.0 0.0
8
0.0 1.0 0.0 1.0 0.0 1.0 1.0 0.0
8
0.280801 0.719199 0.450522 0.549478 0.518173 0.481827 0.619131 0.380869
8
0.0 1.0 1.0 0.0 1.0 0.0 0.0 1.0
8
0.0 1.0 1.0 0.0 1.0 0.0 0.0 1.0
8
0.0 1.0 1.0 0.0 1.0 0.0 0.0 1.0
8
0.0 1.0 0.0 1.0 1.0 0.0 0.0 1.0
8
1.0 0.0 1.0 0.0 1.0 0.0 0.0 1.0
8
0.966607 0.0333925 0.0153711 0.984629 0.361981 0.638019 0.484781 0.515219
8
1.0 0.0 0.0 1.0 1.0 0.0 1.0 0.0
8
1.0 0.0 0.0 1.0 1.0 0.0 1.0 0.0
8
0.437075 0.562925 0.249162 0.750838 0.671866 0.328134 0.149937 0.850063
8
0.635196 0.364804 0.421771 0.578229 0.319965 0.680035 0.714661 0.285339
8
1.0 0.0 1.0 0.0 0.0 1.0 1.0 0.0
8
0.0 1.0 0.0 1.0 1.0 0.0 1.0 0.0
8
1.0 0.0 0.0 1.0 1.0 0.0 0.0 1.0
8
0.0 1.0 1.0 0.0 1.0 0.0 1.0 0.0
8
0.0 1.0 1.0 0.0 0.0 1.0 0.0 1.0
8
0.345905 0.654095 0.676605 0.323395 0.398705 0.601295 0.665869 0.334131
8
1.0 0.0 0.0 1.0 0.0 1.0 0.0 1.0
8
0.0 1.0 0.0 1.0 1.0 0.0 1.0 0.0
8
0.795342 0.204658 0.450655 0.549345 0.324405 0.675595 0.587911 0.412089
8
1.0 0.0 1.0 0.0 1.0 0.0 0.0 1.0
4
0.0 1.0 1.0 0.0
8
0.0 1.0 1.0 0.0 1.0 0.0 1.0 0.0
8
0.0 1.0 0.0 1.0 1.0 0.0 0.0 1.0
8
0.716444 0.283556 0.757194 0.242806 0.569869 0.430131 0.656445 0.343555
8
0.0 1.0 0.0 1.0 1.0 0.0 0.0 1.0
8
1.0 0.0 0.0 1.0 1.0 0.0 0.0 1.0
8
1.0 0.0 0.0 1.0 1.0 0.0 0.0 1.0
8
0.984376 0.0156236 0.0391215 0.960879 0.259859 0.740141 0.144021 0.855979
8
1.0 0.0 1.0 0.0 0.0 1.0 1.0 0.0
8
0.0 1.0 1.0 0.0 0.0 1.0 1.0 0.0
8
0.0 1.0 1.0 0.0 0.0 1.0 0.0 1.0
8
1.0 0.0 0.0 1.0 0.0 1.0 0.0 1.0
8
0.0 1.0 1.0 0.0 1.0 0.0 1.0 0.0
8
1.0 0.0 0.0 1.0 0.0 1.0 1.0 0.0
8
0.138943 0.861057 0.685432 0.314568 0.978557 0.0214431 0.796789 0.203211
8
0.0 1.0 0.0 1.0 1.0 0.0 1.0 0.0
8
0.206141 0.793859 0.943462 0.056538 0.50548 0.49452 0.939415 0.0605849
8
1.0 0.0 0.0 1.0 0.0 1.0 0.0 1.0
8
0.873437 0.126563 0.249826 0.750174 0.141747 0.858253 0.953107 0.0468926
8
0.0 1.0 0.0 1.0 1.0 0.0 0.0 1.0
8
0.49482 0.50518 0.744308 0.255692 0.573863 0.426137 0.473377 0.526623
8
0.0 1.0 0.0 1.0 0.0 1.0 1.0 0.0
8
1.0 0.0 0.0 1.0 1.0 0.0 1.0 0.0
8
1.0 0.0 0.0 1.0 1.0 0.0 1.0 0.0
8
0.750593 0.249407 0.923364 0.0766356 0.140658 0.859342 0.892341 0.107659
8
0.390268 0.609732 0.193886 0.806114 0.948371 0.0516286 0.899521 0.100479
4
0.836802 0.163198 0.394341 0.605659
8
1.0 0.0 1.0 0.0 0.0 1.0 1.0 0.0
8
1.0 0.0 1.0 0.0 1.0 0.0 0.0 1.0
8
0.0 1.0 1.0 0.0 1.0 0.0 1.0 0.0
8
0.0 1.0 0.0 1.0 0.0 1.0 1.0 0.0
8
0.0 1.0 1.0 0.0 1.0 0.0 1.0 0.0
8
1.0 0.0 1.0 0.0 1.0 0.0 0.0 1.0
8
1.0 0.0 0.0 1.0 0.0 1.0 0.0 1.0
8
1.0 0.0 0.0 1.0 1.0 0.0 0.0 1.0
8
1.0 0.0 1.0 0.0 0.0 1.0 1.0 0.0
8
0.191517 0.808483 0.616809 0.383191 0.146507 0.853493 0.867048 0.132952
8
1.0 0.0 0.0 1.0 0.0 1.0 1.0 0.0
8
0.473285 0.526715 0.650997 0.349003 0.2566 0.7434 0.882888 0.117112
8
0.0 1.0 1.0 0.0 1.0 0.0 1.0 0.0
8
0.0 1.0 0.0 1.0 1.0 0.0 0.0 1.0
8
0.0 1.0 0.0 1.0 0.0 1.0 1.0 0.0
8
0.964435 0.035565 0.261663 0.738337 0.13976 0.86024 0.216764 0.783236
8
1.0 0.0 1.0 0.0 1.0 0.0 0.0 1.0
8
0.953957 0.046043 0.713315 0.286685 0.86118 0.13882 0.114167 0.885833
8
1.0 0.0 0.0 1.0 1.0 0.0 0.0 1.0
8
1.0 0.0 0.0 1.0 0.0 1.0 0.0 1.0
8
0.615012 0.384988 0.272134 0.727866 0.609615 0.390385 0.00962686 0.990373
8
0.0 1.0 0.0 1.0 1.0 0.0 0.0 1.0
8
0.559616 0.440384 0.552141 0.447859 0.878223 0.121777 0.979415 0.0205851
8
0.0 1.0 1.0 0.0 0.0 1.0 0.0 1.0
8
0.0 1.0 0.0 1.0 1.0 0.0 0.0 1.0
4
0.0 1.0 1.0 0.0
8
1.0 0.0 0.0 1.0 1.0 0.0 1.0 0.0
8
0.2526 0.7474 0.934865 0.0651351 0.512981 0.487019 0.52389 0.47611
8
1.0 0.0 0.0 1.0 1.0 0.0 1.0 0.0
8
0.842825 0.157175 0.436914 0.563086 0.661794 0.338206 0.535556 0.464444
8
1.0 0.0 0.0 1.0 0.0 1.0 0.0 1.0
8
0.0 1.0 1.0 0.0 0.0 1.0 1.0 0.0
8
0.0 1.0 0.0 1.0 1.0 0.0 1.0 0.0
8
0.0 1.0 0.0 1.0 1.0 0.0 1.0 0.0
8
1.0 0.0 0.0 1.0 1.0 0.0 0.0 1.0
8
0.0 1.0 1.0 0.0 1.0 0.0 0.0 1.0
8
1.0 0.0 0.0 1.0 0.0 1.0 0.0 1.0
8
0.00975714 0.990243 0.179307 0.820693 0.847346 0.152654 0.0240365 0.975964
8
1.0 0.0 1.0 0.0 0.0 1.0 0.0 1.0
8
0.0 1.0 0.0 1.0 1.0 0.0 1.0 0.0
8
0.544973 0.455027 0.532817 0.467183 0.43244 0.56756 0.507687 0.492313
8
0.0 1.0 1.0 0.0 1.0 0.0 1.0 0.0
8
1.0 0.0 0.0 1.0 1.0 0.0 0.0 1.0
8
0.0 1.0 0.0 1.0 1.0 0.0 1.0 0.0
8
0.0 1.0 0.0 1.0 1.0 0.0 0.0 1.0
8
0.0 1.0 1.0 0.0 1.0 0.0 0.0 1.0
8
0.0 1.0 0.0 1.0 0.0 1.0 1.0 0.0
8
0.0 1.0 0.0 1.0 0.0 1.0 1.0 0.0
8
0.42111 0.57889 0.68956 0.31044 0.752158 0.247842 0.698095 0.301905
8
0.534407 0.465593 0.984837 0.0151628 0.219379 0.780621 0.164002 0.835998
8
1.0 0.0 0.0 1.0 1.0 0.0 0.0 1.0
4
0.0 1.0 1.0 0.0
8
0.691991 0.308009 0.0768397 0.92316 0.795303 0.204697 0.0105692 0.989431
8
1.0 0.0 0.0 1.0 1.0 0.0 0.0 1.0
8
1.0 0.0 0.0 1.0 1.0 0.0 0.0 1.0
8
0.0 1.0 1.0 0.0 0.0 1.0 0.0 1.0
8
1.0 0.0 1.0 0.0 0.0 1.0 1.0 0.0
8
0.011312 0.988688 0.924418 0.0755819 0.159151 0.840849 0.313911 0.686089
8
1.0 0.0 1.0 0.0 0.0 1.0 1.0 0.0
8
0.843145 0.156855 0.623298 0.376702 0.00975854 0.990241 0.803538 0.196462
8
0.37284 0.62716 0.441164 0.558836 0.497497 0.502503 0.530371 0.469629
8
1.0 0.0 0.0 1.0 0.0 1.0 1.0 0.0
8
0.998402 0.00159776 0.278796 0.721204 0.492251 0.507749 0.0356872 0.964313
8
0.0 1.0 0.0 1.0 1.0 0.0 0.0 1.0
8
0.0 1.0 0.0 1.0 1.0 0.0 0.0 1.0
8
1.0 0.0 1.0 0.0 0.0 1.0 1.0 0.0
8
0.921063 0.0789367 0.63749 0.36251 0.259644 0.740356 0.451434 0.548566
8
0.0 1.0 0.0 1.0 0.0 1.0 1.0 0.0
8
0.392526 0.607474 0.230538 0.769462 0.267898 0.732102 0.428213 0.571787
8
1.0 0.0 0.0 1.0 1.0 0.0 0.0 1.0
8
0.0285816 0.971418 0.508995 0.491005 0.587783 0.412217 0.578225 0.421775
8
1.0 0.0 0.0 1.0 0.0 1.0 0.0 1.0
8
1.0 0.0 0.0 1.0 0.0 1.0 1.0 0.0
8
0.647098 0.352902 0.938461 0.0615392 0.336342 0.663658 0.59884 0.40116
8
1.0 0.0 0.0 1.0 1.0 0.0 1.0 0.0
8
0.0 1.0 1.0 0.0 0.0 1.0 0.0 1.0
8
0.0 1.0 0.0 1.0 1.0 0.0 0.0 1.0